
<<< setup


<<< generate

Version identifier: 12.10.0.0 | 2019-11-26 | 843d4de2ae
CPXPARAM_TimeLimit                               1200
Tried aggregator 3 times.
MIP Presolve eliminated 5137080 rows and 2903436 columns.
MIP Presolve modified 417218 coefficients.
Aggregator did 997 substitutions.
Reduced MIP has 104973 rows, 107117 columns, and 678695 nonzeros.
Reduced MIP has 107067 binaries, 0 generals, 0 SOSs, and 0 indicators.
Presolve time = 7.33 sec. (4727.22 ticks)
Found incumbent of value 16168.000000 after 11.47 sec. (6134.27 ticks)
Probing fixed 2650 vars, tightened 0 bounds.
Probing time = 44.73 sec. (8907.53 ticks)
Tried aggregator 2 times.
Detecting symmetries...
MIP Presolve eliminated 2650 rows and 2650 columns.
Aggregator did 1 substitutions.
Reduced MIP has 102322 rows, 104466 columns, and 661001 nonzeros.
Reduced MIP has 104416 binaries, 0 generals, 0 SOSs, and 0 indicators.
Presolve time = 1.03 sec. (475.65 ticks)
Probing fixed 1 vars, tightened 0 bounds.
Probing time = 0.61 sec. (142.68 ticks)
Clique table members: 367426.
MIP emphasis: balance optimality and feasibility.
MIP search method: dynamic search.
Parallel mode: deterministic, using up to 4 threads.
Root relaxation solution time = 2.64 sec. (1693.32 ticks)

        Nodes                                         Cuts/
   Node  Left     Objective  IInf  Best Integer    Best Bound    ItCnt     Gap

*     0+    0                        16168.0000   117008.0000           623.70%
      0     0    62468.0000   438    16168.0000    62468.0000     6432  286.37%
      0     0    62468.0000   438    16168.0000       Cuts: 3     6478  286.37%
      0     0    62468.0000   438    16168.0000    Cuts: 9837    10383  286.37%
      0     0    62468.0000   438    16168.0000      Cuts: 99    10812  286.37%
*     0+    0                        19002.0000    62468.0000           228.74%
      0     0    62468.0000   438    19002.0000    Cuts: 4854    13611  228.74%
Heuristic still looking.
      0     2    62468.0000   109    19002.0000    62468.0000    13611  228.74%
Elapsed time = 213.17 sec. (96925.28 ticks, tree = 0.02 MB, solutions = 2)
      1     3    62468.0000   255    19002.0000    62468.0000    24445  228.74%
      2     4    62468.0000   287    19002.0000    62468.0000    32446  228.74%
      3     5    62468.0000   276    19002.0000    62468.0000    40687  228.74%
      4     6    62468.0000   274    19002.0000    62468.0000    43733  228.74%
      5     7    62468.0000   280    19002.0000    62468.0000    52543  228.74%
      6     4    62468.0000   290    19002.0000    62468.0000    36183  228.74%
      7     3    62468.0000   105    19002.0000    62468.0000    13627  228.74%
      8     9    62468.0000   152    19002.0000    62468.0000    58757  228.74%
      9     8    62468.0000   315    19002.0000    62468.0000    79805  228.74%
     10     5    62468.0000   299    19002.0000    62468.0000    42317  228.74%
Elapsed time = 289.53 sec. (130062.20 ticks, tree = 0.02 MB, solutions = 2)
     12     8    62468.0000   235    19002.0000    62468.0000    73604  228.74%
     13    11    62468.0000   223    19002.0000    62468.0000    63630  228.74%
     14    12    62468.0000   108    19002.0000    62468.0000    63684  228.74%
     15    12    62468.0000   227    19002.0000    62468.0000   104601  228.74%
     17    16    62468.0000   114    19002.0000    62468.0000   104222  228.74%
     18     9    62468.0000   255    19002.0000    62468.0000   100965  228.74%
     19    11    62468.0000   309    19002.0000    62468.0000   126170  228.74%
     20    18    62468.0000   271    19002.0000    62468.0000   152881  228.74%
     21    20    62468.0000   280    19002.0000    62468.0000   212100  228.74%
     22    17    62468.0000   136    19002.0000    62468.0000   105398  228.74%
Elapsed time = 454.17 sec. (158281.19 ticks, tree = 0.47 MB, solutions = 2)
     23    22    62468.0000   180    19002.0000    62468.0000   213125  228.74%
     25    24    62468.0000   178    19002.0000    62468.0000   214553  228.74%
     26    25    62468.0000   117    19002.0000    62468.0000   214730  228.74%
     29    28    62468.0000   177    19002.0000    62468.0000   216540  228.74%
     31    30    62468.0000   157    19002.0000    62468.0000   217795  228.74%
     33    32    62468.0000   219    19002.0000    62468.0000   219042  228.74%
     35    19    62468.0000   272    19002.0000    62468.0000   154616  228.74%
     36    28    62468.0000   256    19002.0000    62468.0000   234754  228.74%
     37    29    62468.0000   255    19002.0000    62468.0000   237420  228.74%
     38    13    62468.0000   327    19002.0000    62468.0000   143665  228.74%
Elapsed time = 571.41 sec. (189573.32 ticks, tree = 0.23 MB, solutions = 2)
     40    34    62468.0000   281    19002.0000    62468.0000   233460  228.74%
     43    21    62468.0000   273    19002.0000    62468.0000   235756  228.74%
     47    34    62468.0000   214    19002.0000    62468.0000   290749  228.74%
     49    41    62468.0000   255    19002.0000    62468.0000   305439  228.74%
     52    35    62468.0000   215    19002.0000    62468.0000   308055  228.74%
     54    46    62468.0000   234    19002.0000    62468.0000   349871  228.74%
     56    48    62468.0000   232    19002.0000    62468.0000   350770  228.74%
     57    49    62468.0000   234    19002.0000    62468.0000   351564  228.74%
     59    51    62468.0000   241    19002.0000    62468.0000   353577  228.74%
     60    44    62468.0000   310    19002.0000    62468.0000   318824  228.74%
Elapsed time = 640.39 sec. (209315.62 ticks, tree = 3.00 MB, solutions = 2)
     61    56    62468.0000   242    19002.0000    62468.0000   388308  228.74%
     66    52    62468.0000   211    19002.0000    62468.0000   363630  228.74%
     67    52    62468.0000   301    19002.0000    62468.0000   381216  228.74%
     68    65    62468.0000   214    19002.0000    62468.0000   417830  228.74%
     69    42    62468.0000   242    19002.0000    62468.0000   346661  228.74%
     70    66    62468.0000   214    19002.0000    62468.0000   432725  228.74%
     72    59    62468.0000   231    19002.0000    62468.0000   388796  228.74%
     74    72    62468.0000   368    19002.0000    62468.0000   454357  228.74%
     76    74    62468.0000   275    19002.0000    62468.0000   463258  228.74%
     79    77    62468.0000   199    19002.0000    62468.0000   475381  228.74%
Elapsed time = 765.56 sec. (255789.06 ticks, tree = 10.69 MB, solutions = 2)
     81    79    62468.0000   324    19002.0000    62468.0000   481930  228.74%
     82    80    62468.0000   198    19002.0000    62468.0000   482030  228.74%
     83    67    62468.0000   189    19002.0000    62468.0000   449550  228.74%
     84    66    62468.0000   222    19002.0000    62468.0000   450970  228.74%
     85    67    62468.0000   238    19002.0000    62468.0000   465328  228.74%
     86    81    62468.0000   233    19002.0000    62468.0000   492549  228.74%
     87    81    62468.0000   227    19002.0000    62468.0000   513256  228.74%
     88    82    62468.0000   188    19002.0000    62468.0000   513827  228.74%
     89    83    62468.0000   176    19002.0000    62468.0000   516846  228.74%
     90    90    62468.0000   165    19002.0000    62468.0000   572426  228.74%
Elapsed time = 1007.08 sec. (296783.50 ticks, tree = 13.60 MB, solutions = 2)
     91    82    62468.0000   205    19002.0000    62468.0000   526413  228.74%
     92    91    62468.0000   165    19002.0000    62468.0000   572449  228.74%
     93    87    62468.0000   250    19002.0000    62468.0000   561830  228.74%
     96    93    62468.0000   232    19002.0000    62468.0000   589696  228.74%
     98    94    62468.0000   220    19002.0000    62468.0000   596442  228.74%
     99    93    62468.0000   281    19002.0000    62468.0000   596979  228.74%
    102    96    62468.0000   156    19002.0000    62468.0000   587500  228.74%
    108   100    62468.0000   154    19002.0000    62468.0000   588596  228.74%
    113   104    62468.0000   132    19002.0000    62468.0000   589459  228.74%
    117    91    62468.0000   205    19002.0000    62468.0000   582905  228.74%
Elapsed time = 1083.49 sec. (322610.17 ticks, tree = 12.76 MB, solutions = 2)
    123   111    62468.0000   117    19002.0000    62468.0000   593218  228.74%
    125   113    62468.0000   198    19002.0000    62468.0000   595281  228.74%
    131   116    62468.0000   234    19002.0000    62468.0000   598296  228.74%
    132   117    62468.0000   352    19002.0000    62468.0000   600124  228.74%
    136   119    62468.0000   222    19002.0000    62468.0000   601981  228.74%
    141   122    62468.0000   234    19002.0000    62468.0000   603884  228.74%
    153   124    62468.0000   162    19002.0000    62468.0000   604925  228.74%
    156   102    62468.0000   189    19002.0000    62468.0000   651609  228.74%
    159   125    62468.0000   152    19002.0000    62468.0000   605166  228.74%
    164   128    62468.0000   168    19002.0000    62468.0000   605878  228.74%
Elapsed time = 1113.11 sec. (336477.09 ticks, tree = 46.19 MB, solutions = 2)
    168   103    62468.0000   272    19002.0000    62468.0000   635951  228.74%
    170   104    62468.0000   251    19002.0000    62468.0000   636961  228.74%
    171   114    62468.0000   190    19002.0000    62468.0000   708445  228.74%
    172   115    62468.0000   323    19002.0000    62468.0000   709287  228.74%
    173   116    62468.0000   237    19002.0000    62468.0000   716900  228.74%
    174   132    62468.0000   619    19002.0000    62468.0000   617214  228.74%
    175   105    62468.0000   309    19002.0000    62468.0000   651777  228.74%
    177   116    62468.0000   202    19002.0000    62468.0000   716096  228.74%
    179   117    62468.0000   213    19002.0000    62468.0000   718522  228.74%
    180   106    62468.0000   288    19002.0000    62468.0000   655327  228.74%
Elapsed time = 1163.11 sec. (355906.42 ticks, tree = 25.22 MB, solutions = 2)
    182   117    62468.0000   171    19002.0000    62468.0000   720303  228.74%
    183   161    62468.0000   144    19002.0000    62468.0000   800292  228.74%
    184   161    62468.0000   134    19002.0000    62468.0000   801905  228.74%
    186   156    62468.0000   281    19002.0000    62468.0000   785736  228.74%
    187   163    62468.0000   192    19002.0000    62468.0000   804638  228.74%
    189   165    62468.0000   149    19002.0000    62468.0000   805957  228.74%

Implied bound cuts applied:  836
Flow cuts applied:  176
Mixed integer rounding cuts applied:  7705
Gomory fractional cuts applied:  1

Root node processing (before b&c):
  Real time             =  210.55 sec. (96065.87 ticks)
Parallel b&c, 4 threads:
  Real time             =  989.98 sec. (275690.64 ticks)
  Sync time (average)   =  162.59 sec.
  Wait time (average)   =    0.00 sec.
                          ------------
Total (root+branch&cut) = 1200.53 sec. (371756.52 ticks)

<<< solve


OBJECTIVE: 19002

<<< post process


<<< done

